NAME    PRODUCT
ROWS
 N  COST
 L  ROW1_1
 L  ROW1_2
 L  ROW1_3
 L  ROW1_4
 L  ROW1_5
 L  ROW1_6
 L  ROW1_7
 L  ROW1_8
 L  ROW1_9
 G  ROW2_1
 G  ROW2_2
 G  ROW2_3
 L  ROW2_4
 L  ROW2_5
 L  ROW2_6
 L  ROW2_7
COLUMNS
    COL1_1    ROW1_1           -1.0  
    COL1_1    COST              2.5
    COL1_2    ROW1_2           -1.0    COST         3.75
    COL1_3    ROW1_3           -1.0    COST         5.0
    COL1_4    ROW1_4           -1.0    COST         3.0
    COL1_5    ROW1_1            1.0    ROW1_5       0.08
    COL1_5    ROW1_6            1.0    ROW2_4       -1.0
    COL1_6    ROW1_2            1.0    ROW1_5       0.04
    COL1_6    ROW1_7            1.0    ROW2_5       -1.0
    COL1_7    ROW1_3            1.0    ROW1_5       0.03
    COL1_7    ROW1_8            1.0    ROW2_6       -1.0
    COL1_8    ROW1_4            1.0    ROW1_5       0.01  
    COL1_8    ROW1_9            1.0    ROW2_7       -1.0
    COL2_1    ROW2_1            0.6    ROW2_4       1.0
    COL2_1    COST              2.6
    COL2_2    ROW2_1            0.6    ROW2_5       1.0
    COL2_2    COST              3.4
    COL2_3    ROW2_1            0.9    ROW2_6       1.0
    COL2_3    COST              3.4
    COL2_4    ROW2_1            0.8    ROW2_7       1.0
    COL2_4    COST              2.5
    COL2_5    ROW2_2            0.1    ROW2_4       1.0
    COL2_5    COST              1.5
    COL2_6    ROW2_2            0.9    ROW2_5       1.0
    COL2_6    COST              2.3
    COL2_7    ROW2_2            0.6    ROW2_6       1.0
    COL2_7    COST              2.0
    COL2_8    ROW2_2            0.8    ROW2_7       1.0
    COL2_8    COST              3.6
    COL2_9    ROW2_3           0.05    ROW2_4       1.0
    COL2_9    COST              4.0
    COL2_10   ROW2_3            0.2    ROW2_5       1.0
    COL2_10   COST              3.8
    COL2_11   ROW2_3            0.5    ROW2_6       1.0
    COL2_11   COST              3.5
    COL2_12   ROW2_3            0.8    ROW2_7       1.0
    COL2_12   COST              3.2
    COL2_13   ROW2_1            1.0    COST         400
    COL2_14   ROW2_2            1.0    COST         400
    COL2_15   ROW2_3            1.0    COST         400
RHS
    RHS	      ROW1_1            500
    RHS	      ROW1_2            500
    RHS	      ROW1_3            500
    RHS	      ROW1_4            500
    RHS	      ROW1_5            100
    RHS	      ROW1_6           2000
    RHS	      ROW1_7           2000
    RHS	      ROW1_8           3000
    RHS	      ROW1_9           3000
    RHS       ROW2_1           1500
    RHS       ROW2_2           1500
    RHS       ROW2_3           1500
ENDATA
